
domSetOfBlockInFunction = array1d(allBlocksInFunction, [{0},{1,0},{2,5,0},{3,8,2,5,0},{4,2,5,0},{5,0},{6,0},{7,2,5,0},{8,2,5,0}]);

execFrequencyOfBlockInFunction = array1d(allBlocksInFunction, [16384,16384,8192,4096,8192,16384,16384,8192,8192]);

defEdgesForBlockInFunction = array1d(allBlocksInFunction, [{24},{9},{21},{22},{8,23},{},{},{},{}]);

entryBlockOfFunction = 0;

funLocDomain = [|1, 1, 33, |0, 1, 33, |];

numBlocksInFunction = 9;

numDataInFunction = 28;

numOperationsInFunction = 33;

statesInFunction = [];

inBlock = inBlock = [|8, 0, |9, 0, |10, 0, |11, 0, |35, 3, |36, 4, |37, 5, |38, 6, |39, 7, |40, 8, |4... ]; // array too long to display, dimensions: (23)


inBlockSucc = inBlockSucc = [|2, 3, 4, |3, 4, 1, |4, 5, 2, |5, 6, 1, |6, 7, 4, |7, 8, 3, |27, 2, 7, |28, 0, 5... ]; // array too long to display, dimensions: (43)


locDomain = locDomain = locDomain = locDomain = [|24, 13, 0, 31, |24, 12, 0, 31, |24, 4, 1, 31, |25, 13, 0, 31, |25, 12, 0, 31, |... ]; // array too long to display, dimensions: (30)
 // array too long to display, dimensions: (241)


applyDefDomUseConstraintForMatch = array1d(allMatches, applyDefDomUseConstraintForMatch = [false,false,true,true,true,true,true,true,true,true,true,true,true,true,true,tru... ] // array too long to display, dimensions: (69)
);

codeSizeOfMatch = array1d(allMatches, codeSizeOfMatch = [0,0,0,0,0,0,0,0,0,0,0,0,0,0,0,0,0,0,0,0,0,0,0,0,4,4,4,4,4,4,4,4,4,4,4,4,4,4,4,4,... ] // array too long to display, dimensions: (69)
);

consumedBlocksInMatch = array1d(allMatches, consumedBlocksInMatch = [{},{},{},{},{},{},{},{},{},{},{},{},{},{},{},{},{},{},{},{},{},{},{},{},{},{},{}... ] // array too long to display, dimensions: (69)
);

dataDefinedByMatch = array1d(allMatches, dataDefinedByMatch = [{8},{9},{},{},{},{},{},{},{27},{26},{0},{1},{18},{20},{10},{11},{21},{23},{25},{... ] // array too long to display, dimensions: (74)
);

dataUsedByMatch = array1d(allMatches, dataUsedByMatch = [{22,21},{24,23},{},{},{},{},{},{},{},{},{},{},{5},{6},{0},{1},{7},{8},{9},{2},{3... ] // array too long to display, dimensions: (88)
);

entryBlockOfMatch = array1d(allMatches, entryBlockOfMatch = [{},{},{3},{4},{5},{6},{7},{8},{0},{0},{0},{0},{},{},{},{},{},{},{},{},{},{},{},{... ] // array too long to display, dimensions: (69)
);

latencyOfMatch = array1d(allMatches, latencyOfMatch = [0,0,0,0,0,0,0,0,0,0,0,0,0,0,0,0,0,0,0,0,0,0,0,0,1,1,1,1,1,1,1,1,1,1,1,1,1,1,1,1,... ] // array too long to display, dimensions: (69)
);

nonCopyMatches = {0,1,2,3,4,5,6,7,8,9,10,11,24,25,26,27,28,29,30,31,32,33,34,35,36,37,38,39,40,41,65,66,67,68};

operationsCoveredByMatch = array1d(allMatches, operationsCoveredByMatch = [{6},{7},{10},{11},{29},{30},{31},{32},{},{},{},{},{21},{23},{13},{14},{24},{26},... ] // array too long to display, dimensions: (78)
);

spannedBlocksInMatch = array1d(allMatches, spannedBlocksInMatch = [{},{},{3,4},{4,1},{5,2},{6,1},{7,4},{8,3},{0},{0},{0},{0},{},{},{},{},{},{},{},{... ] // array too long to display, dimensions: (97)
);

numLocations = 34;

numMatches = 69;

sameLoc = sameLoc = [|0, 22, 21, |0, 21, 8, |1, 24, 23, |1, 23, 9, |12, 5, 18, |13, 6, 20, |14, 0, 10... ]; // array too long to display, dimensions: (49)


